param MAXWORK := 32;

param:
TNAME: TWORK :=
'delta2.pm' 120
'delta2.pf' 40
'echo2.pm' 80
'echo2.pf' 40
'foxtrot2.pm' 40
'foxtrot2.pf' 20
'gamma2.pm' 60
'gamma2.pf' 40
'golf2.pm' 160
'golf2.pf' 60
'hotel2.pm' 40
'hotel2.pf' 20
'tango2.pe' 200
'tango2.pm' 600
'tango2.pf' 120
'uniform2.pe' 200
'uniform2.pm' 640
'uniform2.pf' 80
;

set TSCOPE['delta2.pm'] :=
3 4 7 8 9 10 11 14 15 16 17 18 21 22 23 24 25 28 29 30 31 32 35 36 37 38 39 42 43 44 45 46 49 50 51 52 53 56 57 58 59 60 63 64 65 66 67 70 71 72
73 74 77 78 79 80 81 84 85 86 87 88 91 92 93 94 95 98 99 100 101 102 105 106 107 108 109 112 113 114 115 116 119 120 121 123 126 127 128 129 130 133 134 135 136 137 140 141 142 143
144 147 148 149 150 151 154 155 156 157 158 161 162 163 164 165 168 169 170 171 172
;

set TSCOPE['delta2.pf'] :=
175 176 177 178 179 182 183
;

set TSCOPE['echo2.pm'] :=
3 4 7 8 9 10 11 14 15 16 17 18 21 22
;

set TSCOPE['echo2.pf'] :=
23 24 25 28 29 30 31 32 35 36 37 38 39 42 43 44 45 46 49 50 51 52 53 56 57 58 59 60 63 64 65 66 67 70
;

set TSCOPE['foxtrot2.pm'] :=
3 4 7 8 9 10 11 14 15 16 17 18 21 22 23 24 25 28 29 30 31 32 35 36 37 38 39 42 43 44 45 46 49 50 51 52 53 56 57 58 59 60 63 64 65 66 67 70 71 72
73 74 77 78 79 80 81
;

set TSCOPE['foxtrot2.pf'] :=
84 85 86 87 88 91 92
;

set TSCOPE['gamma2.pm'] :=
3 4 7 8 9 10 11 14 15 16 17 18 21 22
;

set TSCOPE['gamma2.pf'] :=
23 24 25 28 29 30 31 32 35
;

set TSCOPE['golf2.pm'] :=
3 4 7 8 9 10 11 14 15 16 17 18 21 22 23 24 25 28 29 30 31 32 35 36 37 38 39 42 43 44 45 46 49 50 51 52 53 56 57 58 59 60 63 64 65 66 67 70 71 72
73 74 77 78 79 80 81
;

set TSCOPE['golf2.pf'] :=
84 85 86 87 88 91
;

set TSCOPE['hotel2.pm'] :=
3 4 7 8 9 10 11 14 15 16 17 18 21 22 23 24 25 28 29 30 31 32 35 36 37 38 39 42 43 44 45 46
;

set TSCOPE['hotel2.pf'] :=
49 50 51 52 53 56 57
;

set TSCOPE['tango2.pe'] :=
35 36 37 38 39 42 43 44 45 46
;

set TSCOPE['tango2.pm'] :=
49 50 51 52 53 56 57 58 59 60 63 64 65 66 67 70 71 72 73 74 77 78 79 80 81 84 85 86 87 88 91 92 93 94 95 98 99 100 101 102 105 106 107 108 109 112 113 114 115 116
119 120 121 123 126 127 128 129 130 133 134 135 136 137 140 141 142 143 144 147 148 149 150 151 154 155 156 157 158 161 162 163 164 165 168 169 170 171 172 175 176 177 178 179 182 183 184 185 186 189
190 191 192 193 196 197 198 199 200 203 204 205 206 207 210 211 212 213 214 217 218 219 220 221 224 225 226 227 228 231 232 233 234 235 238 239 240 241 242 245 246 247 248 249 252 253 254 255 256 259
;

set TSCOPE['tango2.pf'] :=
260 261 262 263 266 267 268 269 270 273 274 275
;

set TSCOPE['uniform2.pe'] :=
123 126 127 128 129 130 133 134 135 136 137
;

set TSCOPE['uniform2.pm'] :=
140 141 142 143 144 147 148 149 150 151 154 155 156 157 158 161 162 163 164 165 168 169 170 171 172 175 176 177 178 179 182 183 184 185 186 189 190 191 192 193 196 197 198 199 200 203 204 205 206 207
210 211 212 213 214 217 218 219 220 221 224 225 226 227 228 231 232 233 234 235 238 239 240 241 242 245 246 247 248 249 252 253 254 255 256 259 260 261 262 263 266 267 268 269 270 273 274 275 276 277
280 281 282 283 284 287 288 289 290 291 294 295 296 297 298 301 302 303 304 305 308 309 310 311 312 315 316 317 318 319 322 323 324 325 326 329 330 331 332 333 336 337 338 339 340 343 344 345 346 347
350 351 352 353 354 357 358 359 360 361 364 365 366 367 368 371 372 373 374 375 378 379 380 381 382 385 386 387 388 389 392 393 394 395 396 399 400 401 402 403 406 407 408
;

set TSCOPE['uniform2.pf'] :=
409 410 413 414 415 416 417 420 421 422 423 424 427
;

set ENAME :=
'PM.Anthony'
;

set ASSIGN :=
'PM.Anthony' 'delta2.pf'
'PM.Anthony' 'delta2.pm'
'PM.Anthony' 'echo2.pf'
'PM.Anthony' 'echo2.pm'
'PM.Anthony' 'foxtrot2.pf'
'PM.Anthony' 'foxtrot2.pm'
'PM.Anthony' 'gamma2.pf'
'PM.Anthony' 'gamma2.pm'
'PM.Anthony' 'golf2.pf'
'PM.Anthony' 'golf2.pm'
'PM.Anthony' 'hotel2.pf'
'PM.Anthony' 'hotel2.pm'
'PM.Anthony' 'tango2.pe'
'PM.Anthony' 'tango2.pf'
'PM.Anthony' 'tango2.pm'
'PM.Anthony' 'uniform2.pe'
'PM.Anthony' 'uniform2.pf'
'PM.Anthony' 'uniform2.pm'
;

param:
XBID: XBL XBU :=
'PM.Anthony' 'delta2.pm' 3 0.0 1.0
'PM.Anthony' 'delta2.pm' 4 0.0 1.0
'PM.Anthony' 'delta2.pm' 7 0.0 1.0
'PM.Anthony' 'delta2.pm' 8 0.0 1.0
'PM.Anthony' 'delta2.pm' 9 0.0 1.0
'PM.Anthony' 'delta2.pm' 10 0.0 1.0
'PM.Anthony' 'delta2.pm' 11 0.0 1.0
'PM.Anthony' 'delta2.pm' 14 0.0 1.0
'PM.Anthony' 'delta2.pm' 15 0.0 1.0
'PM.Anthony' 'delta2.pm' 16 0.0 1.0
'PM.Anthony' 'delta2.pm' 17 0.0 1.0
'PM.Anthony' 'delta2.pm' 18 0.0 1.0
'PM.Anthony' 'delta2.pm' 21 0.0 1.0
'PM.Anthony' 'delta2.pm' 22 0.0 1.0
'PM.Anthony' 'delta2.pm' 23 0.0 1.0
'PM.Anthony' 'delta2.pm' 24 0.0 1.0
'PM.Anthony' 'delta2.pm' 25 0.0 1.0
'PM.Anthony' 'delta2.pm' 28 0.0 1.0
'PM.Anthony' 'delta2.pm' 29 0.0 1.0
'PM.Anthony' 'delta2.pm' 30 0.0 1.0
'PM.Anthony' 'delta2.pm' 31 0.0 1.0
'PM.Anthony' 'delta2.pm' 32 0.0 1.0
'PM.Anthony' 'delta2.pm' 35 0.0 1.0
'PM.Anthony' 'delta2.pm' 36 0.0 1.0
'PM.Anthony' 'delta2.pm' 37 0.0 1.0
'PM.Anthony' 'delta2.pm' 38 0.0 1.0
'PM.Anthony' 'delta2.pm' 39 0.0 1.0
'PM.Anthony' 'delta2.pm' 42 0.0 1.0
'PM.Anthony' 'delta2.pm' 43 0.0 1.0
'PM.Anthony' 'delta2.pm' 44 0.0 1.0
'PM.Anthony' 'delta2.pm' 45 0.0 1.0
'PM.Anthony' 'delta2.pm' 46 0.0 1.0
'PM.Anthony' 'delta2.pm' 49 0.0 1.0
'PM.Anthony' 'delta2.pm' 50 0.0 1.0
'PM.Anthony' 'delta2.pm' 51 0.0 1.0
'PM.Anthony' 'delta2.pm' 52 0.0 1.0
'PM.Anthony' 'delta2.pm' 53 0.0 1.0
'PM.Anthony' 'delta2.pm' 56 0.0 1.0
'PM.Anthony' 'delta2.pm' 57 0.0 1.0
'PM.Anthony' 'delta2.pm' 58 0.0 1.0
'PM.Anthony' 'delta2.pm' 59 0.0 1.0
'PM.Anthony' 'delta2.pm' 60 0.0 1.0
'PM.Anthony' 'delta2.pm' 63 0.0 1.0
'PM.Anthony' 'delta2.pm' 64 0.0 1.0
'PM.Anthony' 'delta2.pm' 65 0.0 1.0
'PM.Anthony' 'delta2.pm' 66 0.0 1.0
'PM.Anthony' 'delta2.pm' 67 0.0 1.0
'PM.Anthony' 'delta2.pm' 70 0.0 1.0
'PM.Anthony' 'delta2.pm' 71 0.0 1.0
'PM.Anthony' 'delta2.pm' 72 0.0 1.0
'PM.Anthony' 'delta2.pm' 73 0.0 1.0
'PM.Anthony' 'delta2.pm' 74 0.0 1.0
'PM.Anthony' 'delta2.pm' 77 0.0 1.0
'PM.Anthony' 'delta2.pm' 78 0.0 1.0
'PM.Anthony' 'delta2.pm' 79 0.0 1.0
'PM.Anthony' 'delta2.pm' 80 0.0 1.0
'PM.Anthony' 'delta2.pm' 81 0.0 1.0
'PM.Anthony' 'delta2.pm' 84 0.0 1.0
'PM.Anthony' 'delta2.pm' 85 0.0 1.0
'PM.Anthony' 'delta2.pm' 86 0.0 1.0
'PM.Anthony' 'delta2.pm' 87 0.0 1.0
'PM.Anthony' 'delta2.pm' 88 0.0 1.0
'PM.Anthony' 'delta2.pm' 91 0.0 1.0
'PM.Anthony' 'delta2.pm' 92 0.0 1.0
'PM.Anthony' 'delta2.pm' 93 0.0 1.0
'PM.Anthony' 'delta2.pm' 94 0.0 1.0
'PM.Anthony' 'delta2.pm' 95 0.0 1.0
'PM.Anthony' 'delta2.pm' 98 0.0 1.0
'PM.Anthony' 'delta2.pm' 99 0.0 1.0
'PM.Anthony' 'delta2.pm' 100 0.0 1.0
'PM.Anthony' 'delta2.pm' 101 0.0 1.0
'PM.Anthony' 'delta2.pm' 102 0.0 1.0
'PM.Anthony' 'delta2.pm' 105 0.0 1.0
'PM.Anthony' 'delta2.pm' 106 0.0 1.0
'PM.Anthony' 'delta2.pm' 107 0.0 1.0
'PM.Anthony' 'delta2.pm' 108 0.0 1.0
'PM.Anthony' 'delta2.pm' 109 0.0 1.0
'PM.Anthony' 'delta2.pm' 112 0.0 1.0
'PM.Anthony' 'delta2.pm' 113 0.0 1.0
'PM.Anthony' 'delta2.pm' 114 0.0 1.0
'PM.Anthony' 'delta2.pm' 115 0.0 1.0
'PM.Anthony' 'delta2.pm' 116 0.0 1.0
'PM.Anthony' 'delta2.pm' 119 0.0 1.0
'PM.Anthony' 'delta2.pm' 120 0.0 1.0
'PM.Anthony' 'delta2.pm' 121 0.0 1.0
'PM.Anthony' 'delta2.pm' 123 0.0 1.0
'PM.Anthony' 'delta2.pm' 126 0.0 1.0
'PM.Anthony' 'delta2.pm' 127 0.0 1.0
'PM.Anthony' 'delta2.pm' 128 0.0 1.0
'PM.Anthony' 'delta2.pm' 129 0.0 1.0
'PM.Anthony' 'delta2.pm' 130 0.0 1.0
'PM.Anthony' 'delta2.pm' 133 0.0 1.0
'PM.Anthony' 'delta2.pm' 134 0.0 1.0
'PM.Anthony' 'delta2.pm' 135 0.0 1.0
'PM.Anthony' 'delta2.pm' 136 0.0 1.0
'PM.Anthony' 'delta2.pm' 137 0.0 1.0
'PM.Anthony' 'delta2.pm' 140 0.0 1.0
'PM.Anthony' 'delta2.pm' 141 0.0 1.0
'PM.Anthony' 'delta2.pm' 142 0.0 1.0
'PM.Anthony' 'delta2.pm' 143 0.0 1.0
'PM.Anthony' 'delta2.pm' 144 0.0 1.0
'PM.Anthony' 'delta2.pm' 147 0.0 1.0
'PM.Anthony' 'delta2.pm' 148 0.0 1.0
'PM.Anthony' 'delta2.pm' 149 0.0 1.0
'PM.Anthony' 'delta2.pm' 150 0.0 1.0
'PM.Anthony' 'delta2.pm' 151 0.0 1.0
'PM.Anthony' 'delta2.pm' 154 0.0 1.0
'PM.Anthony' 'delta2.pm' 155 0.0 1.0
'PM.Anthony' 'delta2.pm' 156 0.0 1.0
'PM.Anthony' 'delta2.pm' 157 0.0 1.0
'PM.Anthony' 'delta2.pm' 158 0.0 1.0
'PM.Anthony' 'delta2.pm' 161 0.0 1.0
'PM.Anthony' 'delta2.pm' 162 0.0 1.0
'PM.Anthony' 'delta2.pm' 163 0.0 1.0
'PM.Anthony' 'delta2.pm' 164 0.0 1.0
'PM.Anthony' 'delta2.pm' 165 0.0 1.0
'PM.Anthony' 'delta2.pm' 168 0.0 1.0
'PM.Anthony' 'delta2.pm' 169 0.0 1.0
'PM.Anthony' 'delta2.pm' 170 0.0 1.0
'PM.Anthony' 'delta2.pm' 171 0.0 1.0
'PM.Anthony' 'delta2.pm' 172 0.0 1.0
'PM.Anthony' 'delta2.pf' 175 5.0 6.0
'PM.Anthony' 'delta2.pf' 176 5.0 6.0
'PM.Anthony' 'delta2.pf' 177 5.0 6.0
'PM.Anthony' 'delta2.pf' 178 5.0 6.0
'PM.Anthony' 'delta2.pf' 179 5.0 6.0
'PM.Anthony' 'delta2.pf' 182 5.0 6.0
'PM.Anthony' 'delta2.pf' 183 5.0 6.0
'PM.Anthony' 'echo2.pm' 3 5.0 6.0
'PM.Anthony' 'echo2.pm' 4 5.0 6.0
'PM.Anthony' 'echo2.pm' 7 5.0 6.0
'PM.Anthony' 'echo2.pm' 8 5.0 6.0
'PM.Anthony' 'echo2.pm' 9 5.0 6.0
'PM.Anthony' 'echo2.pm' 10 5.0 6.0
'PM.Anthony' 'echo2.pm' 11 5.0 6.0
'PM.Anthony' 'echo2.pm' 14 5.0 6.0
'PM.Anthony' 'echo2.pm' 15 5.0 6.0
'PM.Anthony' 'echo2.pm' 16 5.0 6.0
'PM.Anthony' 'echo2.pm' 17 5.0 6.0
'PM.Anthony' 'echo2.pm' 18 5.0 6.0
'PM.Anthony' 'echo2.pm' 21 5.0 6.0
'PM.Anthony' 'echo2.pm' 22 5.0 6.0
'PM.Anthony' 'echo2.pf' 23 1.0 2.0
'PM.Anthony' 'echo2.pf' 24 1.0 2.0
'PM.Anthony' 'echo2.pf' 25 1.0 2.0
'PM.Anthony' 'echo2.pf' 28 1.0 2.0
'PM.Anthony' 'echo2.pf' 29 1.0 2.0
'PM.Anthony' 'echo2.pf' 30 1.0 2.0
'PM.Anthony' 'echo2.pf' 31 1.0 2.0
'PM.Anthony' 'echo2.pf' 32 1.0 2.0
'PM.Anthony' 'echo2.pf' 35 1.0 2.0
'PM.Anthony' 'echo2.pf' 36 1.0 2.0
'PM.Anthony' 'echo2.pf' 37 1.0 2.0
'PM.Anthony' 'echo2.pf' 38 1.0 2.0
'PM.Anthony' 'echo2.pf' 39 1.0 2.0
'PM.Anthony' 'echo2.pf' 42 1.0 2.0
'PM.Anthony' 'echo2.pf' 43 1.0 2.0
'PM.Anthony' 'echo2.pf' 44 1.0 2.0
'PM.Anthony' 'echo2.pf' 45 1.0 2.0
'PM.Anthony' 'echo2.pf' 46 1.0 2.0
'PM.Anthony' 'echo2.pf' 49 1.0 2.0
'PM.Anthony' 'echo2.pf' 50 1.0 2.0
'PM.Anthony' 'echo2.pf' 51 1.0 2.0
'PM.Anthony' 'echo2.pf' 52 1.0 2.0
'PM.Anthony' 'echo2.pf' 53 1.0 2.0
'PM.Anthony' 'echo2.pf' 56 1.0 2.0
'PM.Anthony' 'echo2.pf' 57 1.0 2.0
'PM.Anthony' 'echo2.pf' 58 1.0 2.0
'PM.Anthony' 'echo2.pf' 59 1.0 2.0
'PM.Anthony' 'echo2.pf' 60 1.0 2.0
'PM.Anthony' 'echo2.pf' 63 1.0 2.0
'PM.Anthony' 'echo2.pf' 64 1.0 2.0
'PM.Anthony' 'echo2.pf' 65 1.0 2.0
'PM.Anthony' 'echo2.pf' 66 1.0 2.0
'PM.Anthony' 'echo2.pf' 67 1.0 2.0
'PM.Anthony' 'echo2.pf' 70 1.0 2.0
'PM.Anthony' 'foxtrot2.pm' 3 0.0 1.0
'PM.Anthony' 'foxtrot2.pm' 4 0.0 1.0
'PM.Anthony' 'foxtrot2.pm' 7 0.0 1.0
'PM.Anthony' 'foxtrot2.pm' 8 0.0 1.0
'PM.Anthony' 'foxtrot2.pm' 9 0.0 1.0
'PM.Anthony' 'foxtrot2.pm' 10 0.0 1.0
'PM.Anthony' 'foxtrot2.pm' 11 0.0 1.0
'PM.Anthony' 'foxtrot2.pm' 14 0.0 1.0
'PM.Anthony' 'foxtrot2.pm' 15 0.0 1.0
'PM.Anthony' 'foxtrot2.pm' 16 0.0 1.0
'PM.Anthony' 'foxtrot2.pm' 17 0.0 1.0
'PM.Anthony' 'foxtrot2.pm' 18 0.0 1.0
'PM.Anthony' 'foxtrot2.pm' 21 0.0 1.0
'PM.Anthony' 'foxtrot2.pm' 22 0.0 1.0
'PM.Anthony' 'foxtrot2.pm' 23 0.0 1.0
'PM.Anthony' 'foxtrot2.pm' 24 0.0 1.0
'PM.Anthony' 'foxtrot2.pm' 25 0.0 1.0
'PM.Anthony' 'foxtrot2.pm' 28 0.0 1.0
'PM.Anthony' 'foxtrot2.pm' 29 0.0 1.0
'PM.Anthony' 'foxtrot2.pm' 30 0.0 1.0
'PM.Anthony' 'foxtrot2.pm' 31 0.0 1.0
'PM.Anthony' 'foxtrot2.pm' 32 0.0 1.0
'PM.Anthony' 'foxtrot2.pm' 35 0.0 1.0
'PM.Anthony' 'foxtrot2.pm' 36 0.0 1.0
'PM.Anthony' 'foxtrot2.pm' 37 0.0 1.0
'PM.Anthony' 'foxtrot2.pm' 38 0.0 1.0
'PM.Anthony' 'foxtrot2.pm' 39 0.0 1.0
'PM.Anthony' 'foxtrot2.pm' 42 0.0 1.0
'PM.Anthony' 'foxtrot2.pm' 43 0.0 1.0
'PM.Anthony' 'foxtrot2.pm' 44 0.0 1.0
'PM.Anthony' 'foxtrot2.pm' 45 0.0 1.0
'PM.Anthony' 'foxtrot2.pm' 46 0.0 1.0
'PM.Anthony' 'foxtrot2.pm' 49 0.0 1.0
'PM.Anthony' 'foxtrot2.pm' 50 0.0 1.0
'PM.Anthony' 'foxtrot2.pm' 51 0.0 1.0
'PM.Anthony' 'foxtrot2.pm' 52 0.0 1.0
'PM.Anthony' 'foxtrot2.pm' 53 0.0 1.0
'PM.Anthony' 'foxtrot2.pm' 56 0.0 1.0
'PM.Anthony' 'foxtrot2.pm' 57 0.0 1.0
'PM.Anthony' 'foxtrot2.pm' 58 0.0 1.0
'PM.Anthony' 'foxtrot2.pm' 59 0.0 1.0
'PM.Anthony' 'foxtrot2.pm' 60 0.0 1.0
'PM.Anthony' 'foxtrot2.pm' 63 0.0 1.0
'PM.Anthony' 'foxtrot2.pm' 64 0.0 1.0
'PM.Anthony' 'foxtrot2.pm' 65 0.0 1.0
'PM.Anthony' 'foxtrot2.pm' 66 0.0 1.0
'PM.Anthony' 'foxtrot2.pm' 67 0.0 1.0
'PM.Anthony' 'foxtrot2.pm' 70 0.0 1.0
'PM.Anthony' 'foxtrot2.pm' 71 0.0 1.0
'PM.Anthony' 'foxtrot2.pm' 72 0.0 1.0
'PM.Anthony' 'foxtrot2.pm' 73 0.0 1.0
'PM.Anthony' 'foxtrot2.pm' 74 0.0 1.0
'PM.Anthony' 'foxtrot2.pm' 77 0.0 1.0
'PM.Anthony' 'foxtrot2.pm' 78 0.0 1.0
'PM.Anthony' 'foxtrot2.pm' 79 0.0 1.0
'PM.Anthony' 'foxtrot2.pm' 80 0.0 1.0
'PM.Anthony' 'foxtrot2.pm' 81 0.0 1.0
'PM.Anthony' 'foxtrot2.pf' 84 2.0 3.0
'PM.Anthony' 'foxtrot2.pf' 85 2.0 3.0
'PM.Anthony' 'foxtrot2.pf' 86 2.0 3.0
'PM.Anthony' 'foxtrot2.pf' 87 2.0 3.0
'PM.Anthony' 'foxtrot2.pf' 88 2.0 3.0
'PM.Anthony' 'foxtrot2.pf' 91 2.0 3.0
'PM.Anthony' 'foxtrot2.pf' 92 2.0 3.0
'PM.Anthony' 'gamma2.pm' 3 4.0 5.0
'PM.Anthony' 'gamma2.pm' 4 4.0 5.0
'PM.Anthony' 'gamma2.pm' 7 4.0 5.0
'PM.Anthony' 'gamma2.pm' 8 4.0 5.0
'PM.Anthony' 'gamma2.pm' 9 4.0 5.0
'PM.Anthony' 'gamma2.pm' 10 4.0 5.0
'PM.Anthony' 'gamma2.pm' 11 4.0 5.0
'PM.Anthony' 'gamma2.pm' 14 4.0 5.0
'PM.Anthony' 'gamma2.pm' 15 4.0 5.0
'PM.Anthony' 'gamma2.pm' 16 4.0 5.0
'PM.Anthony' 'gamma2.pm' 17 4.0 5.0
'PM.Anthony' 'gamma2.pm' 18 4.0 5.0
'PM.Anthony' 'gamma2.pm' 21 4.0 5.0
'PM.Anthony' 'gamma2.pm' 22 4.0 5.0
'PM.Anthony' 'gamma2.pf' 23 4.0 5.0
'PM.Anthony' 'gamma2.pf' 24 4.0 5.0
'PM.Anthony' 'gamma2.pf' 25 4.0 5.0
'PM.Anthony' 'gamma2.pf' 28 4.0 5.0
'PM.Anthony' 'gamma2.pf' 29 4.0 5.0
'PM.Anthony' 'gamma2.pf' 30 4.0 5.0
'PM.Anthony' 'gamma2.pf' 31 4.0 5.0
'PM.Anthony' 'gamma2.pf' 32 4.0 5.0
'PM.Anthony' 'gamma2.pf' 35 4.0 5.0
'PM.Anthony' 'golf2.pm' 3 2.0 3.0
'PM.Anthony' 'golf2.pm' 4 2.0 3.0
'PM.Anthony' 'golf2.pm' 7 2.0 3.0
'PM.Anthony' 'golf2.pm' 8 2.0 3.0
'PM.Anthony' 'golf2.pm' 9 2.0 3.0
'PM.Anthony' 'golf2.pm' 10 2.0 3.0
'PM.Anthony' 'golf2.pm' 11 2.0 3.0
'PM.Anthony' 'golf2.pm' 14 2.0 3.0
'PM.Anthony' 'golf2.pm' 15 2.0 3.0
'PM.Anthony' 'golf2.pm' 16 2.0 3.0
'PM.Anthony' 'golf2.pm' 17 2.0 3.0
'PM.Anthony' 'golf2.pm' 18 2.0 3.0
'PM.Anthony' 'golf2.pm' 21 2.0 3.0
'PM.Anthony' 'golf2.pm' 22 2.0 3.0
'PM.Anthony' 'golf2.pm' 23 2.0 3.0
'PM.Anthony' 'golf2.pm' 24 2.0 3.0
'PM.Anthony' 'golf2.pm' 25 2.0 3.0
'PM.Anthony' 'golf2.pm' 28 2.0 3.0
'PM.Anthony' 'golf2.pm' 29 2.0 3.0
'PM.Anthony' 'golf2.pm' 30 2.0 3.0
'PM.Anthony' 'golf2.pm' 31 2.0 3.0
'PM.Anthony' 'golf2.pm' 32 2.0 3.0
'PM.Anthony' 'golf2.pm' 35 2.0 3.0
'PM.Anthony' 'golf2.pm' 36 2.0 3.0
'PM.Anthony' 'golf2.pm' 37 2.0 3.0
'PM.Anthony' 'golf2.pm' 38 2.0 3.0
'PM.Anthony' 'golf2.pm' 39 2.0 3.0
'PM.Anthony' 'golf2.pm' 42 2.0 3.0
'PM.Anthony' 'golf2.pm' 43 2.0 3.0
'PM.Anthony' 'golf2.pm' 44 2.0 3.0
'PM.Anthony' 'golf2.pm' 45 2.0 3.0
'PM.Anthony' 'golf2.pm' 46 2.0 3.0
'PM.Anthony' 'golf2.pm' 49 2.0 3.0
'PM.Anthony' 'golf2.pm' 50 2.0 3.0
'PM.Anthony' 'golf2.pm' 51 2.0 3.0
'PM.Anthony' 'golf2.pm' 52 2.0 3.0
'PM.Anthony' 'golf2.pm' 53 2.0 3.0
'PM.Anthony' 'golf2.pm' 56 2.0 3.0
'PM.Anthony' 'golf2.pm' 57 2.0 3.0
'PM.Anthony' 'golf2.pm' 58 2.0 3.0
'PM.Anthony' 'golf2.pm' 59 2.0 3.0
'PM.Anthony' 'golf2.pm' 60 2.0 3.0
'PM.Anthony' 'golf2.pm' 63 2.0 3.0
'PM.Anthony' 'golf2.pm' 64 2.0 3.0
'PM.Anthony' 'golf2.pm' 65 2.0 3.0
'PM.Anthony' 'golf2.pm' 66 2.0 3.0
'PM.Anthony' 'golf2.pm' 67 2.0 3.0
'PM.Anthony' 'golf2.pm' 70 2.0 3.0
'PM.Anthony' 'golf2.pm' 71 2.0 3.0
'PM.Anthony' 'golf2.pm' 72 2.0 3.0
'PM.Anthony' 'golf2.pm' 73 2.0 3.0
'PM.Anthony' 'golf2.pm' 74 2.0 3.0
'PM.Anthony' 'golf2.pm' 77 2.0 3.0
'PM.Anthony' 'golf2.pm' 78 2.0 3.0
'PM.Anthony' 'golf2.pm' 79 2.0 3.0
'PM.Anthony' 'golf2.pm' 80 2.0 3.0
'PM.Anthony' 'golf2.pm' 81 2.0 3.0
'PM.Anthony' 'golf2.pf' 84 10.0 11.0
'PM.Anthony' 'golf2.pf' 85 10.0 11.0
'PM.Anthony' 'golf2.pf' 86 10.0 11.0
'PM.Anthony' 'golf2.pf' 87 10.0 11.0
'PM.Anthony' 'golf2.pf' 88 10.0 11.0
'PM.Anthony' 'golf2.pf' 91 10.0 11.0
'PM.Anthony' 'hotel2.pm' 3 1.0 2.0
'PM.Anthony' 'hotel2.pm' 4 1.0 2.0
'PM.Anthony' 'hotel2.pm' 7 1.0 2.0
'PM.Anthony' 'hotel2.pm' 8 1.0 2.0
'PM.Anthony' 'hotel2.pm' 9 1.0 2.0
'PM.Anthony' 'hotel2.pm' 10 1.0 2.0
'PM.Anthony' 'hotel2.pm' 11 1.0 2.0
'PM.Anthony' 'hotel2.pm' 14 1.0 2.0
'PM.Anthony' 'hotel2.pm' 15 1.0 2.0
'PM.Anthony' 'hotel2.pm' 16 1.0 2.0
'PM.Anthony' 'hotel2.pm' 17 1.0 2.0
'PM.Anthony' 'hotel2.pm' 18 1.0 2.0
'PM.Anthony' 'hotel2.pm' 21 1.0 2.0
'PM.Anthony' 'hotel2.pm' 22 1.0 2.0
'PM.Anthony' 'hotel2.pm' 23 1.0 2.0
'PM.Anthony' 'hotel2.pm' 24 1.0 2.0
'PM.Anthony' 'hotel2.pm' 25 1.0 2.0
'PM.Anthony' 'hotel2.pm' 28 1.0 2.0
'PM.Anthony' 'hotel2.pm' 29 1.0 2.0
'PM.Anthony' 'hotel2.pm' 30 1.0 2.0
'PM.Anthony' 'hotel2.pm' 31 1.0 2.0
'PM.Anthony' 'hotel2.pm' 32 1.0 2.0
'PM.Anthony' 'hotel2.pm' 35 1.0 2.0
'PM.Anthony' 'hotel2.pm' 36 1.0 2.0
'PM.Anthony' 'hotel2.pm' 37 1.0 2.0
'PM.Anthony' 'hotel2.pm' 38 1.0 2.0
'PM.Anthony' 'hotel2.pm' 39 1.0 2.0
'PM.Anthony' 'hotel2.pm' 42 1.0 2.0
'PM.Anthony' 'hotel2.pm' 43 1.0 2.0
'PM.Anthony' 'hotel2.pm' 44 1.0 2.0
'PM.Anthony' 'hotel2.pm' 45 1.0 2.0
'PM.Anthony' 'hotel2.pm' 46 1.0 2.0
'PM.Anthony' 'hotel2.pf' 49 2.0 3.0
'PM.Anthony' 'hotel2.pf' 50 2.0 3.0
'PM.Anthony' 'hotel2.pf' 51 2.0 3.0
'PM.Anthony' 'hotel2.pf' 52 2.0 3.0
'PM.Anthony' 'hotel2.pf' 53 2.0 3.0
'PM.Anthony' 'hotel2.pf' 56 2.0 3.0
'PM.Anthony' 'hotel2.pf' 57 2.0 3.0
'PM.Anthony' 'tango2.pe' 35 20.0 21.0
'PM.Anthony' 'tango2.pe' 36 20.0 21.0
'PM.Anthony' 'tango2.pe' 37 20.0 21.0
'PM.Anthony' 'tango2.pe' 38 20.0 21.0
'PM.Anthony' 'tango2.pe' 39 20.0 21.0
'PM.Anthony' 'tango2.pe' 42 20.0 21.0
'PM.Anthony' 'tango2.pe' 43 20.0 21.0
'PM.Anthony' 'tango2.pe' 44 20.0 21.0
'PM.Anthony' 'tango2.pe' 45 20.0 21.0
'PM.Anthony' 'tango2.pe' 46 20.0 21.0
'PM.Anthony' 'tango2.pm' 49 4.0 5.0
'PM.Anthony' 'tango2.pm' 50 4.0 5.0
'PM.Anthony' 'tango2.pm' 51 4.0 5.0
'PM.Anthony' 'tango2.pm' 52 4.0 5.0
'PM.Anthony' 'tango2.pm' 53 4.0 5.0
'PM.Anthony' 'tango2.pm' 56 4.0 5.0
'PM.Anthony' 'tango2.pm' 57 4.0 5.0
'PM.Anthony' 'tango2.pm' 58 4.0 5.0
'PM.Anthony' 'tango2.pm' 59 4.0 5.0
'PM.Anthony' 'tango2.pm' 60 4.0 5.0
'PM.Anthony' 'tango2.pm' 63 4.0 5.0
'PM.Anthony' 'tango2.pm' 64 4.0 5.0
'PM.Anthony' 'tango2.pm' 65 4.0 5.0
'PM.Anthony' 'tango2.pm' 66 4.0 5.0
'PM.Anthony' 'tango2.pm' 67 4.0 5.0
'PM.Anthony' 'tango2.pm' 70 4.0 5.0
'PM.Anthony' 'tango2.pm' 71 4.0 5.0
'PM.Anthony' 'tango2.pm' 72 4.0 5.0
'PM.Anthony' 'tango2.pm' 73 4.0 5.0
'PM.Anthony' 'tango2.pm' 74 4.0 5.0
'PM.Anthony' 'tango2.pm' 77 4.0 5.0
'PM.Anthony' 'tango2.pm' 78 4.0 5.0
'PM.Anthony' 'tango2.pm' 79 4.0 5.0
'PM.Anthony' 'tango2.pm' 80 4.0 5.0
'PM.Anthony' 'tango2.pm' 81 4.0 5.0
'PM.Anthony' 'tango2.pm' 84 4.0 5.0
'PM.Anthony' 'tango2.pm' 85 4.0 5.0
'PM.Anthony' 'tango2.pm' 86 4.0 5.0
'PM.Anthony' 'tango2.pm' 87 4.0 5.0
'PM.Anthony' 'tango2.pm' 88 4.0 5.0
'PM.Anthony' 'tango2.pm' 91 4.0 5.0
'PM.Anthony' 'tango2.pm' 92 4.0 5.0
'PM.Anthony' 'tango2.pm' 93 4.0 5.0
'PM.Anthony' 'tango2.pm' 94 4.0 5.0
'PM.Anthony' 'tango2.pm' 95 4.0 5.0
'PM.Anthony' 'tango2.pm' 98 4.0 5.0
'PM.Anthony' 'tango2.pm' 99 4.0 5.0
'PM.Anthony' 'tango2.pm' 100 4.0 5.0
'PM.Anthony' 'tango2.pm' 101 4.0 5.0
'PM.Anthony' 'tango2.pm' 102 4.0 5.0
'PM.Anthony' 'tango2.pm' 105 4.0 5.0
'PM.Anthony' 'tango2.pm' 106 4.0 5.0
'PM.Anthony' 'tango2.pm' 107 4.0 5.0
'PM.Anthony' 'tango2.pm' 108 4.0 5.0
'PM.Anthony' 'tango2.pm' 109 4.0 5.0
'PM.Anthony' 'tango2.pm' 112 4.0 5.0
'PM.Anthony' 'tango2.pm' 113 4.0 5.0
'PM.Anthony' 'tango2.pm' 114 4.0 5.0
'PM.Anthony' 'tango2.pm' 115 4.0 5.0
'PM.Anthony' 'tango2.pm' 116 4.0 5.0
'PM.Anthony' 'tango2.pm' 119 4.0 5.0
'PM.Anthony' 'tango2.pm' 120 4.0 5.0
'PM.Anthony' 'tango2.pm' 121 4.0 5.0
'PM.Anthony' 'tango2.pm' 123 4.0 5.0
'PM.Anthony' 'tango2.pm' 126 4.0 5.0
'PM.Anthony' 'tango2.pm' 127 4.0 5.0
'PM.Anthony' 'tango2.pm' 128 4.0 5.0
'PM.Anthony' 'tango2.pm' 129 4.0 5.0
'PM.Anthony' 'tango2.pm' 130 4.0 5.0
'PM.Anthony' 'tango2.pm' 133 4.0 5.0
'PM.Anthony' 'tango2.pm' 134 4.0 5.0
'PM.Anthony' 'tango2.pm' 135 4.0 5.0
'PM.Anthony' 'tango2.pm' 136 4.0 5.0
'PM.Anthony' 'tango2.pm' 137 4.0 5.0
'PM.Anthony' 'tango2.pm' 140 4.0 5.0
'PM.Anthony' 'tango2.pm' 141 4.0 5.0
'PM.Anthony' 'tango2.pm' 142 4.0 5.0
'PM.Anthony' 'tango2.pm' 143 4.0 5.0
'PM.Anthony' 'tango2.pm' 144 4.0 5.0
'PM.Anthony' 'tango2.pm' 147 4.0 5.0
'PM.Anthony' 'tango2.pm' 148 4.0 5.0
'PM.Anthony' 'tango2.pm' 149 4.0 5.0
'PM.Anthony' 'tango2.pm' 150 4.0 5.0
'PM.Anthony' 'tango2.pm' 151 4.0 5.0
'PM.Anthony' 'tango2.pm' 154 4.0 5.0
'PM.Anthony' 'tango2.pm' 155 4.0 5.0
'PM.Anthony' 'tango2.pm' 156 4.0 5.0
'PM.Anthony' 'tango2.pm' 157 4.0 5.0
'PM.Anthony' 'tango2.pm' 158 4.0 5.0
'PM.Anthony' 'tango2.pm' 161 4.0 5.0
'PM.Anthony' 'tango2.pm' 162 4.0 5.0
'PM.Anthony' 'tango2.pm' 163 4.0 5.0
'PM.Anthony' 'tango2.pm' 164 4.0 5.0
'PM.Anthony' 'tango2.pm' 165 4.0 5.0
'PM.Anthony' 'tango2.pm' 168 4.0 5.0
'PM.Anthony' 'tango2.pm' 169 4.0 5.0
'PM.Anthony' 'tango2.pm' 170 4.0 5.0
'PM.Anthony' 'tango2.pm' 171 4.0 5.0
'PM.Anthony' 'tango2.pm' 172 4.0 5.0
'PM.Anthony' 'tango2.pm' 175 4.0 5.0
'PM.Anthony' 'tango2.pm' 176 4.0 5.0
'PM.Anthony' 'tango2.pm' 177 4.0 5.0
'PM.Anthony' 'tango2.pm' 178 4.0 5.0
'PM.Anthony' 'tango2.pm' 179 4.0 5.0
'PM.Anthony' 'tango2.pm' 182 4.0 5.0
'PM.Anthony' 'tango2.pm' 183 4.0 5.0
'PM.Anthony' 'tango2.pm' 184 4.0 5.0
'PM.Anthony' 'tango2.pm' 185 4.0 5.0
'PM.Anthony' 'tango2.pm' 186 4.0 5.0
'PM.Anthony' 'tango2.pm' 189 4.0 5.0
'PM.Anthony' 'tango2.pm' 190 4.0 5.0
'PM.Anthony' 'tango2.pm' 191 4.0 5.0
'PM.Anthony' 'tango2.pm' 192 4.0 5.0
'PM.Anthony' 'tango2.pm' 193 4.0 5.0
'PM.Anthony' 'tango2.pm' 196 4.0 5.0
'PM.Anthony' 'tango2.pm' 197 4.0 5.0
'PM.Anthony' 'tango2.pm' 198 4.0 5.0
'PM.Anthony' 'tango2.pm' 199 4.0 5.0
'PM.Anthony' 'tango2.pm' 200 4.0 5.0
'PM.Anthony' 'tango2.pm' 203 4.0 5.0
'PM.Anthony' 'tango2.pm' 204 4.0 5.0
'PM.Anthony' 'tango2.pm' 205 4.0 5.0
'PM.Anthony' 'tango2.pm' 206 4.0 5.0
'PM.Anthony' 'tango2.pm' 207 4.0 5.0
'PM.Anthony' 'tango2.pm' 210 4.0 5.0
'PM.Anthony' 'tango2.pm' 211 4.0 5.0
'PM.Anthony' 'tango2.pm' 212 4.0 5.0
'PM.Anthony' 'tango2.pm' 213 4.0 5.0
'PM.Anthony' 'tango2.pm' 214 4.0 5.0
'PM.Anthony' 'tango2.pm' 217 4.0 5.0
'PM.Anthony' 'tango2.pm' 218 4.0 5.0
'PM.Anthony' 'tango2.pm' 219 4.0 5.0
'PM.Anthony' 'tango2.pm' 220 4.0 5.0
'PM.Anthony' 'tango2.pm' 221 4.0 5.0
'PM.Anthony' 'tango2.pm' 224 4.0 5.0
'PM.Anthony' 'tango2.pm' 225 4.0 5.0
'PM.Anthony' 'tango2.pm' 226 4.0 5.0
'PM.Anthony' 'tango2.pm' 227 4.0 5.0
'PM.Anthony' 'tango2.pm' 228 4.0 5.0
'PM.Anthony' 'tango2.pm' 231 4.0 5.0
'PM.Anthony' 'tango2.pm' 232 4.0 5.0
'PM.Anthony' 'tango2.pm' 233 4.0 5.0
'PM.Anthony' 'tango2.pm' 234 4.0 5.0
'PM.Anthony' 'tango2.pm' 235 4.0 5.0
'PM.Anthony' 'tango2.pm' 238 4.0 5.0
'PM.Anthony' 'tango2.pm' 239 4.0 5.0
'PM.Anthony' 'tango2.pm' 240 4.0 5.0
'PM.Anthony' 'tango2.pm' 241 4.0 5.0
'PM.Anthony' 'tango2.pm' 242 4.0 5.0
'PM.Anthony' 'tango2.pm' 245 4.0 5.0
'PM.Anthony' 'tango2.pm' 246 4.0 5.0
'PM.Anthony' 'tango2.pm' 247 4.0 5.0
'PM.Anthony' 'tango2.pm' 248 4.0 5.0
'PM.Anthony' 'tango2.pm' 249 4.0 5.0
'PM.Anthony' 'tango2.pm' 252 4.0 5.0
'PM.Anthony' 'tango2.pm' 253 4.0 5.0
'PM.Anthony' 'tango2.pm' 254 4.0 5.0
'PM.Anthony' 'tango2.pm' 255 4.0 5.0
'PM.Anthony' 'tango2.pm' 256 4.0 5.0
'PM.Anthony' 'tango2.pm' 259 4.0 5.0
'PM.Anthony' 'tango2.pf' 260 10.0 11.0
'PM.Anthony' 'tango2.pf' 261 10.0 11.0
'PM.Anthony' 'tango2.pf' 262 10.0 11.0
'PM.Anthony' 'tango2.pf' 263 10.0 11.0
'PM.Anthony' 'tango2.pf' 266 10.0 11.0
'PM.Anthony' 'tango2.pf' 267 10.0 11.0
'PM.Anthony' 'tango2.pf' 268 10.0 11.0
'PM.Anthony' 'tango2.pf' 269 10.0 11.0
'PM.Anthony' 'tango2.pf' 270 10.0 11.0
'PM.Anthony' 'tango2.pf' 273 10.0 11.0
'PM.Anthony' 'tango2.pf' 274 10.0 11.0
'PM.Anthony' 'tango2.pf' 275 10.0 11.0
'PM.Anthony' 'uniform2.pe' 123 18.0 19.0
'PM.Anthony' 'uniform2.pe' 126 18.0 19.0
'PM.Anthony' 'uniform2.pe' 127 18.0 19.0
'PM.Anthony' 'uniform2.pe' 128 18.0 19.0
'PM.Anthony' 'uniform2.pe' 129 18.0 19.0
'PM.Anthony' 'uniform2.pe' 130 18.0 19.0
'PM.Anthony' 'uniform2.pe' 133 18.0 19.0
'PM.Anthony' 'uniform2.pe' 134 18.0 19.0
'PM.Anthony' 'uniform2.pe' 135 18.0 19.0
'PM.Anthony' 'uniform2.pe' 136 18.0 19.0
'PM.Anthony' 'uniform2.pe' 137 18.0 19.0
'PM.Anthony' 'uniform2.pm' 140 3.0 4.0
'PM.Anthony' 'uniform2.pm' 141 3.0 4.0
'PM.Anthony' 'uniform2.pm' 142 3.0 4.0
'PM.Anthony' 'uniform2.pm' 143 3.0 4.0
'PM.Anthony' 'uniform2.pm' 144 3.0 4.0
'PM.Anthony' 'uniform2.pm' 147 3.0 4.0
'PM.Anthony' 'uniform2.pm' 148 3.0 4.0
'PM.Anthony' 'uniform2.pm' 149 3.0 4.0
'PM.Anthony' 'uniform2.pm' 150 3.0 4.0
'PM.Anthony' 'uniform2.pm' 151 3.0 4.0
'PM.Anthony' 'uniform2.pm' 154 3.0 4.0
'PM.Anthony' 'uniform2.pm' 155 3.0 4.0
'PM.Anthony' 'uniform2.pm' 156 3.0 4.0
'PM.Anthony' 'uniform2.pm' 157 3.0 4.0
'PM.Anthony' 'uniform2.pm' 158 3.0 4.0
'PM.Anthony' 'uniform2.pm' 161 3.0 4.0
'PM.Anthony' 'uniform2.pm' 162 3.0 4.0
'PM.Anthony' 'uniform2.pm' 163 3.0 4.0
'PM.Anthony' 'uniform2.pm' 164 3.0 4.0
'PM.Anthony' 'uniform2.pm' 165 3.0 4.0
'PM.Anthony' 'uniform2.pm' 168 3.0 4.0
'PM.Anthony' 'uniform2.pm' 169 3.0 4.0
'PM.Anthony' 'uniform2.pm' 170 3.0 4.0
'PM.Anthony' 'uniform2.pm' 171 3.0 4.0
'PM.Anthony' 'uniform2.pm' 172 3.0 4.0
'PM.Anthony' 'uniform2.pm' 175 3.0 4.0
'PM.Anthony' 'uniform2.pm' 176 3.0 4.0
'PM.Anthony' 'uniform2.pm' 177 3.0 4.0
'PM.Anthony' 'uniform2.pm' 178 3.0 4.0
'PM.Anthony' 'uniform2.pm' 179 3.0 4.0
'PM.Anthony' 'uniform2.pm' 182 3.0 4.0
'PM.Anthony' 'uniform2.pm' 183 3.0 4.0
'PM.Anthony' 'uniform2.pm' 184 3.0 4.0
'PM.Anthony' 'uniform2.pm' 185 3.0 4.0
'PM.Anthony' 'uniform2.pm' 186 3.0 4.0
'PM.Anthony' 'uniform2.pm' 189 3.0 4.0
'PM.Anthony' 'uniform2.pm' 190 3.0 4.0
'PM.Anthony' 'uniform2.pm' 191 3.0 4.0
'PM.Anthony' 'uniform2.pm' 192 3.0 4.0
'PM.Anthony' 'uniform2.pm' 193 3.0 4.0
'PM.Anthony' 'uniform2.pm' 196 3.0 4.0
'PM.Anthony' 'uniform2.pm' 197 3.0 4.0
'PM.Anthony' 'uniform2.pm' 198 3.0 4.0
'PM.Anthony' 'uniform2.pm' 199 3.0 4.0
'PM.Anthony' 'uniform2.pm' 200 3.0 4.0
'PM.Anthony' 'uniform2.pm' 203 3.0 4.0
'PM.Anthony' 'uniform2.pm' 204 3.0 4.0
'PM.Anthony' 'uniform2.pm' 205 3.0 4.0
'PM.Anthony' 'uniform2.pm' 206 3.0 4.0
'PM.Anthony' 'uniform2.pm' 207 3.0 4.0
'PM.Anthony' 'uniform2.pm' 210 3.0 4.0
'PM.Anthony' 'uniform2.pm' 211 3.0 4.0
'PM.Anthony' 'uniform2.pm' 212 3.0 4.0
'PM.Anthony' 'uniform2.pm' 213 3.0 4.0
'PM.Anthony' 'uniform2.pm' 214 3.0 4.0
'PM.Anthony' 'uniform2.pm' 217 3.0 4.0
'PM.Anthony' 'uniform2.pm' 218 3.0 4.0
'PM.Anthony' 'uniform2.pm' 219 3.0 4.0
'PM.Anthony' 'uniform2.pm' 220 3.0 4.0
'PM.Anthony' 'uniform2.pm' 221 3.0 4.0
'PM.Anthony' 'uniform2.pm' 224 3.0 4.0
'PM.Anthony' 'uniform2.pm' 225 3.0 4.0
'PM.Anthony' 'uniform2.pm' 226 3.0 4.0
'PM.Anthony' 'uniform2.pm' 227 3.0 4.0
'PM.Anthony' 'uniform2.pm' 228 3.0 4.0
'PM.Anthony' 'uniform2.pm' 231 3.0 4.0
'PM.Anthony' 'uniform2.pm' 232 3.0 4.0
'PM.Anthony' 'uniform2.pm' 233 3.0 4.0
'PM.Anthony' 'uniform2.pm' 234 3.0 4.0
'PM.Anthony' 'uniform2.pm' 235 3.0 4.0
'PM.Anthony' 'uniform2.pm' 238 3.0 4.0
'PM.Anthony' 'uniform2.pm' 239 3.0 4.0
'PM.Anthony' 'uniform2.pm' 240 3.0 4.0
'PM.Anthony' 'uniform2.pm' 241 3.0 4.0
'PM.Anthony' 'uniform2.pm' 242 3.0 4.0
'PM.Anthony' 'uniform2.pm' 245 3.0 4.0
'PM.Anthony' 'uniform2.pm' 246 3.0 4.0
'PM.Anthony' 'uniform2.pm' 247 3.0 4.0
'PM.Anthony' 'uniform2.pm' 248 3.0 4.0
'PM.Anthony' 'uniform2.pm' 249 3.0 4.0
'PM.Anthony' 'uniform2.pm' 252 3.0 4.0
'PM.Anthony' 'uniform2.pm' 253 3.0 4.0
'PM.Anthony' 'uniform2.pm' 254 3.0 4.0
'PM.Anthony' 'uniform2.pm' 255 3.0 4.0
'PM.Anthony' 'uniform2.pm' 256 3.0 4.0
'PM.Anthony' 'uniform2.pm' 259 3.0 4.0
'PM.Anthony' 'uniform2.pm' 260 3.0 4.0
'PM.Anthony' 'uniform2.pm' 261 3.0 4.0
'PM.Anthony' 'uniform2.pm' 262 3.0 4.0
'PM.Anthony' 'uniform2.pm' 263 3.0 4.0
'PM.Anthony' 'uniform2.pm' 266 3.0 4.0
'PM.Anthony' 'uniform2.pm' 267 3.0 4.0
'PM.Anthony' 'uniform2.pm' 268 3.0 4.0
'PM.Anthony' 'uniform2.pm' 269 3.0 4.0
'PM.Anthony' 'uniform2.pm' 270 3.0 4.0
'PM.Anthony' 'uniform2.pm' 273 3.0 4.0
'PM.Anthony' 'uniform2.pm' 274 3.0 4.0
'PM.Anthony' 'uniform2.pm' 275 3.0 4.0
'PM.Anthony' 'uniform2.pm' 276 3.0 4.0
'PM.Anthony' 'uniform2.pm' 277 3.0 4.0
'PM.Anthony' 'uniform2.pm' 280 3.0 4.0
'PM.Anthony' 'uniform2.pm' 281 3.0 4.0
'PM.Anthony' 'uniform2.pm' 282 3.0 4.0
'PM.Anthony' 'uniform2.pm' 283 3.0 4.0
'PM.Anthony' 'uniform2.pm' 284 3.0 4.0
'PM.Anthony' 'uniform2.pm' 287 3.0 4.0
'PM.Anthony' 'uniform2.pm' 288 3.0 4.0
'PM.Anthony' 'uniform2.pm' 289 3.0 4.0
'PM.Anthony' 'uniform2.pm' 290 3.0 4.0
'PM.Anthony' 'uniform2.pm' 291 3.0 4.0
'PM.Anthony' 'uniform2.pm' 294 3.0 4.0
'PM.Anthony' 'uniform2.pm' 295 3.0 4.0
'PM.Anthony' 'uniform2.pm' 296 3.0 4.0
'PM.Anthony' 'uniform2.pm' 297 3.0 4.0
'PM.Anthony' 'uniform2.pm' 298 3.0 4.0
'PM.Anthony' 'uniform2.pm' 301 3.0 4.0
'PM.Anthony' 'uniform2.pm' 302 3.0 4.0
'PM.Anthony' 'uniform2.pm' 303 3.0 4.0
'PM.Anthony' 'uniform2.pm' 304 3.0 4.0
'PM.Anthony' 'uniform2.pm' 305 3.0 4.0
'PM.Anthony' 'uniform2.pm' 308 3.0 4.0
'PM.Anthony' 'uniform2.pm' 309 3.0 4.0
'PM.Anthony' 'uniform2.pm' 310 3.0 4.0
'PM.Anthony' 'uniform2.pm' 311 3.0 4.0
'PM.Anthony' 'uniform2.pm' 312 3.0 4.0
'PM.Anthony' 'uniform2.pm' 315 3.0 4.0
'PM.Anthony' 'uniform2.pm' 316 3.0 4.0
'PM.Anthony' 'uniform2.pm' 317 3.0 4.0
'PM.Anthony' 'uniform2.pm' 318 3.0 4.0
'PM.Anthony' 'uniform2.pm' 319 3.0 4.0
'PM.Anthony' 'uniform2.pm' 322 3.0 4.0
'PM.Anthony' 'uniform2.pm' 323 3.0 4.0
'PM.Anthony' 'uniform2.pm' 324 3.0 4.0
'PM.Anthony' 'uniform2.pm' 325 3.0 4.0
'PM.Anthony' 'uniform2.pm' 326 3.0 4.0
'PM.Anthony' 'uniform2.pm' 329 3.0 4.0
'PM.Anthony' 'uniform2.pm' 330 3.0 4.0
'PM.Anthony' 'uniform2.pm' 331 3.0 4.0
'PM.Anthony' 'uniform2.pm' 332 3.0 4.0
'PM.Anthony' 'uniform2.pm' 333 3.0 4.0
'PM.Anthony' 'uniform2.pm' 336 3.0 4.0
'PM.Anthony' 'uniform2.pm' 337 3.0 4.0
'PM.Anthony' 'uniform2.pm' 338 3.0 4.0
'PM.Anthony' 'uniform2.pm' 339 3.0 4.0
'PM.Anthony' 'uniform2.pm' 340 3.0 4.0
'PM.Anthony' 'uniform2.pm' 343 3.0 4.0
'PM.Anthony' 'uniform2.pm' 344 3.0 4.0
'PM.Anthony' 'uniform2.pm' 345 3.0 4.0
'PM.Anthony' 'uniform2.pm' 346 3.0 4.0
'PM.Anthony' 'uniform2.pm' 347 3.0 4.0
'PM.Anthony' 'uniform2.pm' 350 3.0 4.0
'PM.Anthony' 'uniform2.pm' 351 3.0 4.0
'PM.Anthony' 'uniform2.pm' 352 3.0 4.0
'PM.Anthony' 'uniform2.pm' 353 3.0 4.0
'PM.Anthony' 'uniform2.pm' 354 3.0 4.0
'PM.Anthony' 'uniform2.pm' 357 3.0 4.0
'PM.Anthony' 'uniform2.pm' 358 3.0 4.0
'PM.Anthony' 'uniform2.pm' 359 3.0 4.0
'PM.Anthony' 'uniform2.pm' 360 3.0 4.0
'PM.Anthony' 'uniform2.pm' 361 3.0 4.0
'PM.Anthony' 'uniform2.pm' 364 3.0 4.0
'PM.Anthony' 'uniform2.pm' 365 3.0 4.0
'PM.Anthony' 'uniform2.pm' 366 3.0 4.0
'PM.Anthony' 'uniform2.pm' 367 3.0 4.0
'PM.Anthony' 'uniform2.pm' 368 3.0 4.0
'PM.Anthony' 'uniform2.pm' 371 3.0 4.0
'PM.Anthony' 'uniform2.pm' 372 3.0 4.0
'PM.Anthony' 'uniform2.pm' 373 3.0 4.0
'PM.Anthony' 'uniform2.pm' 374 3.0 4.0
'PM.Anthony' 'uniform2.pm' 375 3.0 4.0
'PM.Anthony' 'uniform2.pm' 378 3.0 4.0
'PM.Anthony' 'uniform2.pm' 379 3.0 4.0
'PM.Anthony' 'uniform2.pm' 380 3.0 4.0
'PM.Anthony' 'uniform2.pm' 381 3.0 4.0
'PM.Anthony' 'uniform2.pm' 382 3.0 4.0
'PM.Anthony' 'uniform2.pm' 385 3.0 4.0
'PM.Anthony' 'uniform2.pm' 386 3.0 4.0
'PM.Anthony' 'uniform2.pm' 387 3.0 4.0
'PM.Anthony' 'uniform2.pm' 388 3.0 4.0
'PM.Anthony' 'uniform2.pm' 389 3.0 4.0
'PM.Anthony' 'uniform2.pm' 392 3.0 4.0
'PM.Anthony' 'uniform2.pm' 393 3.0 4.0
'PM.Anthony' 'uniform2.pm' 394 3.0 4.0
'PM.Anthony' 'uniform2.pm' 395 3.0 4.0
'PM.Anthony' 'uniform2.pm' 396 3.0 4.0
'PM.Anthony' 'uniform2.pm' 399 3.0 4.0
'PM.Anthony' 'uniform2.pm' 400 3.0 4.0
'PM.Anthony' 'uniform2.pm' 401 3.0 4.0
'PM.Anthony' 'uniform2.pm' 402 3.0 4.0
'PM.Anthony' 'uniform2.pm' 403 3.0 4.0
'PM.Anthony' 'uniform2.pm' 406 3.0 4.0
'PM.Anthony' 'uniform2.pm' 407 3.0 4.0
'PM.Anthony' 'uniform2.pm' 408 3.0 4.0
'PM.Anthony' 'uniform2.pf' 409 6.0 7.0
'PM.Anthony' 'uniform2.pf' 410 6.0 7.0
'PM.Anthony' 'uniform2.pf' 413 6.0 7.0
'PM.Anthony' 'uniform2.pf' 414 6.0 7.0
'PM.Anthony' 'uniform2.pf' 415 6.0 7.0
'PM.Anthony' 'uniform2.pf' 416 6.0 7.0
'PM.Anthony' 'uniform2.pf' 417 6.0 7.0
'PM.Anthony' 'uniform2.pf' 420 6.0 7.0
'PM.Anthony' 'uniform2.pf' 421 6.0 7.0
'PM.Anthony' 'uniform2.pf' 422 6.0 7.0
'PM.Anthony' 'uniform2.pf' 423 6.0 7.0
'PM.Anthony' 'uniform2.pf' 424 6.0 7.0
'PM.Anthony' 'uniform2.pf' 427 6.0 7.0
;

param:
EBID: EBN EBS EBE EBL EBU :=

;

param:
PNAME: PERS PERE :=
'Jan.25' 1 16
'Feb.25' 17 45
'Mar.25' 46 76
'Apr.25' 77 105
'May.25' 106 139
'Jun.25' 140 170
'Jul.25' 171 199
'Aug.25' 200 230
'Sep.25' 231 259
'Oct.25' 260 289
'Nov.25' 290 317
'Dec.25' 318 346
;

param:
EXPPER: PBL PBU :=
'PM.Anthony' 'Jan.25' 0 720
'PM.Anthony' 'Feb.25' 0 720
'PM.Anthony' 'Mar.25' 0 720
'PM.Anthony' 'Apr.25' 0 720
'PM.Anthony' 'May.25' 0 720
'PM.Anthony' 'Jun.25' 0 720
'PM.Anthony' 'Jul.25' 0 720
'PM.Anthony' 'Aug.25' 0 720
'PM.Anthony' 'Sep.25' 0 720
'PM.Anthony' 'Oct.25' 0 720
'PM.Anthony' 'Nov.25' 0 720
'PM.Anthony' 'Dec.25' 0 720
;

